L=18;
no=4;
njo=[7,5,6,5];
djo=[4,6,8,7];
trab=[2,3,6,3,4,4,18,6,2,2,4,3,6,4,6,2,2,2,2,4,6,2,4,6,6];
nprec=7;
prec=[| 3, 10,
      | 4, 12,
      | 8, 13,
      | 10, 16,
      | 12, 18,
      | 13, 22,
      | 14, 23 |];


%%%%%%%%%%%%%%%%%%%%%%%%%%%%%%%%%%%%%%%%%%%%%%%%%%%%%%%%%%%%%%%%%%%%%%
%  4
%
%  7   1   7   4  14
%  2   3   6   3 
%  1   1   1   0   0
%  1   2   2   0   0
%  1   3   3   0   1
%      2   3  10
%  1   4   4   0   1
%      2   5  12
%  1   5   5   0   0
%  1   6   6   0   0
%  1   7   7   0   0
%
%  5   8  12   6  36
%  4   4  18   6   2   2 
%  2   1   8   0   1
%      3   1  13
%  2   2   9   0   0
%  2   3  10   1   1
%      1   3   3
%      3   4  16
%  2   4  11   0   0
%  2   5  12   1   1
%      1   4   4
%      3   6  18
%
%  6  13  18   8  29
%  4   3   6   4   6   2   2   2 
%  3   1  13   1   1
%      2   1   8
%      4   4  22
%  3   2  14   0   1
%      4   5  23
%  3   3  15   0   0
%  3   4  16   1   0
%      2   3  10
%  3   5  17   0   0
%  3   6  18   1   0
%      2   5  12
%
%  5  19  23   7  30
%  2   4   6   2   4   6   6 
%  4   1  19   0   0
%  4   2  20   0   0
%  4   3  21   0   0
%  4   4  22   1   0
%      3   1  13
%  4   5  23   1   0
%      3   2  14
%
% 54
